language Essence 1.3

letting pos be
        function((1, 1) --> 1, (1, 2) --> 3, (2, 1) --> 2, (2, 2) --> 5, (3, 1) --> 6, (3, 2) --> 10, (4, 1) --> 9,
                 (4, 2) --> 14, (5, 1) --> 12, (5, 2) --> 18, (6, 1) --> 15, (6, 2) --> 22, (7, 1) --> 13,
                 (7, 2) --> 21, (8, 1) --> 11, (8, 2) --> 20, (9, 1) --> 7, (9, 2) --> 17, (10, 1) --> 8,
                 (10, 2) --> 19, (11, 1) --> 4, (11, 2) --> 16)
